CMD:
./solvers/bin/cadical --plain --no-reduce -t 1600 ./data/cnfs//bj08vendingcycle/bj08vendingcycle.45.cnf

c --- [ banner ] -------------------------------------------------------------
c 
c CaDiCaL SAT Solver
c Copyright (c) 2016-2024
c A. Biere, M. Fleury, N. Froleyks, K. Fazekas, F. Pollitt, T. Faller
c JKU Linz, University of Freiburg, TU Wien
c 
c Version 2.1.3 5296d3d2a9bf48c154ab2acb5e44625776d821bf
c g++ (Gentoo 12.3.1_p20230526 p2) 12.3.1 20230526 -Wall -Wextra -O3 -DNDEBUG
c Sat Aug 9 07:26:21 PDT 2025 Linux cedar2.int.cedar.computecanada.ca 5.14.0-362.24.2.el9_3.x86_64 x86_64
c 
c --- [ limit ] --------------------------------------------------------------
c 
c setting time limit to 1600 seconds real time (due to '-t 1600')
c 
c --- [ parsing input ] ------------------------------------------------------
c 
c reading DIMACS file from './data/cnfs//bj08vendingcycle/bj08vendingcycle.45.cnf'
c opening file to read './data/cnfs//bj08vendingcycle/bj08vendingcycle.45.cnf'
c found 'p cnf 49435 147691' header
c parsed 147691 clauses in 0.02 seconds process time
c 
c --- [ options ] ------------------------------------------------------------
c 
c   --compact=false                (different from default 'true')
c   --decompose=false              (different from default 'true')
c   --deduplicate=false            (different from default 'true')
c   --elim=false                   (different from default 'true')
c   --probe=false                  (different from default 'true')
c   --reduce=false                 (different from default 'true')
c   --subsume=false                (different from default 'true')
c   --ternary=false                (different from default 'true')
c   --transred=false               (different from default 'true')
c   --vivify=false                 (different from default 'true')
c 
c --- [ solving ] ------------------------------------------------------------
c 
c time measured in process time since initialization
c 
c  seconds  reductions  redundant  irredundant
c         MB    restarts       trail       variables
c          level   conflicts       glue         remaining
c 
c *  0.02 26  0 0   0    0    0  0% 0 143844 46549 94%
c {  0.03 27  0 0   0    0    0  0% 0 143844 46549 94%
c i  0.03 27 34 0   0   27   24  8% 2 143844 46548 94%
c i  0.03 27 28 0   0   47   41  8% 2 143844 46547 94%
c i  0.04 27 29 0  39  266  231 12% 2 143844 46530 94%
c i  0.04 27 29 0  40  267  231 12% 2 143844 46513 94%
c i  0.05 27 23 0  77  407  364 12% 3 143844 46496 94%
c i  0.05 27 21 0  92  500  449 12% 3 143844 46493 94%
c }  0.09 27 36 0 156 1000  922 19% 3 143844 46493 94%
c [  0.09 27  0 0 156 1000  922  0% 0 143844 46493 94%
c O  0.09 27 84 0 156 1002  924 40% 1 143844 46493 94%
c ]  0.10 27 86 0 156 1034  956 56% 1 143844 46493 94%
c 1  0.10 27 86 0 156 1034  956 56% 1 143844 46493 94%
c 
c --- [ result ] -------------------------------------------------------------
c 
s SATISFIABLE
v 1 2 3 -4 -5 -6 -7 -8 -9 -10 -11 -12 -13 -14 -15 -16 -17 -18 -19 -20 -21 -22
v -23 -24 -25 -26 -27 -28 -29 -30 -31 -32 -33 -34 -35 -36 37 -38 -39 -40 -41
v -42 43 -44 -45 46 -47 48 49 -50 -51 52 -53 -54 -55 56 -57 -58 -59 -60 -61 62
v -63 -64 65 -66 67 -68 -69 70 71 -72 -73 74 -75 -76 77 -78 -79 80 81 -82 83
v -84 -85 -86 -87 -88 89 -90 -91 -92 -93 94 95 -96 97 98 -99 -100 -101 -102
v -103 -104 105 -106 -107 108 109 -110 -111 -112 -113 114 -115 -116 117 -118
v -119 120 -121 -122 123 -124 -125 -126 127 -128 129 130 -131 -132 133 -134
v -135 -136 137 -138 -139 140 -141 -142 143 -144 -145 146 -147 -148 149 -150
v -151 152 -153 -154 -155 -156 -157 158 -159 -160 161 -162 -163 164 -165 -166
v -167 -168 -169 -170 -171 -172 -173 -174 -175 -176 -177 178 -179 180 181 -182
v 183 -184 185 -186 -187 -188 189 -190 -191 192 -193 -194 195 -196 -197 -198
v 199 -200 -201 202 203 -204 -205 -206 -207 208 -209 -210 211 -212 -213 -214
v 215 216 -217 -218 -219 -220 -221 -222 -223 224 225 -226 -227 -228 229 -230
v -231 -232 -233 234 -235 -236 237 -238 -239 -240 241 -242 -243 -244 -245 -246
v -247 248 -249 -250 251 252 253 254 -255 256 -257 -258 -259 -260 -261 262
v -263 -264 265 266 -267 -268 269 -270 -271 -272 -273 -274 275 -276 -277 278
v 279 -280 -281 -282 -283 284 -285 -286 287 -288 -289 290 -291 -292 -293 294
v -295 296 297 298 -299 300 301 302 -303 -304 -305 -306 307 -308 -309 310 -311
v -312 313 -314 -315 -316 317 -318 -319 320 321 -322 -323 324 -325 -326 327
v -328 -329 -330 331 332 333 334 -335 -336 -337 -338 339 340 -341 -342 343
v -344 -345 -346 -347 -348 349 -350 -351 352 -353 -354 355 -356 -357 358 -359
v -360 361 -362 -363 -364 365 -366 367 -368 -369 370 -371 -372 373 -374 -375
v 376 -377 -378 379 -380 -381 382 -383 -384 -385 386 387 -388 -389 390 -391
v 392 -393 -394 -395 396 -397 -398 399 -400 -401 -402 403 -404 -405 406 -407
v -408 409 -410 -411 412 -413 -414 -415 416 -417 -418 419 -420 -421 -422 -423
v -424 425 -426 -427 428 -429 430 -431 -432 433 -434 -435 -436 437 -438 -439
v 440 441 -442 -443 444 -445 -446 447 448 -449 -450 -451 452 -453 454 -455
v -456 457 -458 -459 460 -461 -462 463 464 -465 -466 -467 -468 -469 470 -471
v -472 -473 -474 475 -476 -477 478 479 -480 -481 482 -483 -484 485 -486 -487
v 488 -489 -490 491 -492 -493 -494 495 -496 497 -498 -499 -500 -501 502 503
v -504 -505 506 -507 -508 -509 -510 -511 512 -513 514 515 -516 -517 -518 -519
v 520 -521 -522 523 -524 -525 526 -527 -528 -529 530 531 -532 -533 -534 -535
v 536 -537 538 -539 -540 541 -542 -543 544 -545 -546 -547 548 -549 -550 551
v 552 -553 -554 -555 -556 557 -558 -559 560 -561 -562 -563 564 -565 566 -567
v 568 -569 -570 -571 572 -573 -574 575 -576 -577 578 -579 -580 -581 582 -583
v -584 585 586 -587 -588 -589 -590 591 -592 -593 594 -595 -596 -597 598 599
v 600 -601 -602 -603 -604 -605 606 -607 -608 609 610 -611 -612 613 -614 -615
... skipped 4241 lines ...
v -48870 -48871 48872 -48873 -48874 48875 48876 -48877 -48878 -48879 48880
v -48881 -48882 -48883 48884 -48885 -48886 48887 -48888 48889 -48890 -48891
v -48892 48893 -48894 48895 -48896 -48897 -48898 -48899 48900 -48901 48902
v -48903 -48904 -48905 48906 -48907 -48908 48909 48910 -48911 -48912 -48913
v 48914 -48915 -48916 -48917 48918 -48919 -48920 48921 -48922 48923 -48924
v -48925 48926 -48927 -48928 48929 -48930 -48931 -48932 -48933 48934 -48935
v 48936 -48937 -48938 -48939 48940 -48941 -48942 48943 48944 -48945 -48946
v -48947 48948 -48949 -48950 48951 -48952 -48953 -48954 48955 -48956 -48957
v 48958 -48959 48960 -48961 48962 -48963 -48964 48965 -48966 -48967 48968
v 48969 -48970 -48971 48972 48973 -48974 48975 -48976 48977 48978 -48979
v -48980 -48981 48982 -48983 48984 -48985 -48986 48987 -48988 -48989 -48990
v 48991 -48992 -48993 48994 -48995 -48996 -48997 -48998 48999 -49000 -49001
v -49002 49003 -49004 -49005 -49006 -49007 49008 -49009 49010 -49011 -49012
v 49013 -49014 -49015 49016 -49017 -49018 49019 -49020 -49021 49022 -49023
v -49024 49025 -49026 -49027 -49028 -49029 49030 -49031 -49032 49033 -49034
v 49035 49036 -49037 49038 49039 49040 -49041 49042 49043 -49044 49045 49046
v -49047 -49048 -49049 49050 -49051 -49052 -49053 -49054 49055 -49056 -49057
v -49058 -49059 49060 -49061 -49062 -49063 49064 -49065 -49066 -49067 49068
v -49069 49070 -49071 -49072 49073 -49074 -49075 -49076 -49077 49078 -49079
v -49080 49081 -49082 -49083 49084 -49085 -49086 -49087 49088 49089 -49090
v 49091 -49092 49093 49094 -49095 -49096 49097 49098 49099 -49100 -49101
v -49102 -49103 49104 -49105 49106 -49107 -49108 49109 -49110 -49111 -49112
v -49113 49114 -49115 49116 -49117 49118 49119 -49120 -49121 49122 -49123
v -49124 49125 49126 -49127 49128 -49129 -49130 -49131 49132 49133 -49134
v 49135 -49136 -49137 -49138 -49139 -49140 -49141 49142 49143 -49144 -49145
v -49146 -49147 49148 -49149 49150 -49151 -49152 -49153 49154 -49155 -49156
v 49157 49158 49159 -49160 -49161 -49162 49163 -49164 -49165 -49166 49167
v -49168 -49169 49170 -49171 49172 -49173 49174 -49175 -49176 -49177 -49178
v 49179 -49180 -49181 49182 49183 -49184 -49185 -49186 -49187 49188 -49189
v 49190 -49191 -49192 -49193 49194 49195 -49196 -49197 -49198 49199 -49200
v -49201 -49202 49203 -49204 -49205 49206 -49207 49208 -49209 -49210 -49211
v -49212 -49213 -49214 -49215 -49216 -49217 -49218 -49219 49220 49221 49222
v 49223 -49224 49225 -49226 49227 49228 -49229 49230 49231 -49232 49233 49234
v -49235 -49236 -49237 -49238 -49239 49240 -49241 -49242 49243 -49244 49245
v -49246 49247 49248 -49249 49250 -49251 49252 -49253 -49254 -49255 49256
v 49257 -49258 -49259 -49260 49261 49262 -49263 49264 -49265 -49266 -49267
v 49268 49269 -49270 49271 -49272 -49273 -49274 49275 49276 -49277 -49278
v -49279 -49280 -49281 -49282 -49283 -49284 49285 -49286 -49287 -49288 -49289
v 49290 -49291 -49292 -49293 49294 -49295 49296 -49297 -49298 -49299 49300
v -49301 -49302 -49303 -49304 49305 -49306 -49307 49308 -49309 49310 -49311
v -49312 -49313 -49314 49315 49316 -49317 -49318 49319 49320 -49321 49322
v -49323 -49324 -49325 -49326 49327 49328 -49329 -49330 -49331 49332 49333
v 49334 -49335 -49336 -49337 -49338 -49339 -49340 -49341 -49342 49343 49344
v 49345 -49346 -49347 -49348 -49349 -49350 -49351 -49352 49353 49354 49355
v 49356 49357 -49358 49359 -49360 -49361 -49362 -49363 49364 -49365 49366
v -49367 -49368 -49369 49370 -49371 -49372 49373 49374 -49375 -49376 -49377
v 49378 -49379 -49380 -49381 49382 -49383 -49384 49385 -49386 -49387 49388
v -49389 -49390 49391 -49392 49393 -49394 -49395 -49396 -49397 49398 49399
v -49400 -49401 49402 -49403 -49404 49405 -49406 -49407 -49408 -49409 49410
v -49411 49412 -49413 -49414 -49415 49416 -49417 -49418 49419 -49420 49421
v -49422 49423 -49424 -49425 49426 -49427 -49428 49429 -49430 -49431 49432
v -49433 49434 -49435 0
c 
c --- [ run-time profiling ] -------------------------------------------------
c 
c process time taken by individual solving procedures
c (percentage relative to process time for solving)
c 
c         0.07   99.83% search
c         0.06   75.99% unstable
c         0.02   31.05% parse
c         0.01   13.42% stable
c         0.01   10.32% lucky
c         0.00    0.00% simplify
c   =================================
c         0.07   74.08% solve
c 
c last line shows process time for solving
c (percentage relative to total process time)
c 
c --- [ statistics ] ---------------------------------------------------------
c 
c chronological:               451        43.62 %  of conflicts
c conflicts:                  1034     14258.14    per second
c decisions:                  4356     60066.19    per second
c fixed:                      2942         5.95 %  of all variables
c learned:                     991        95.84 %  per conflict
c learned_lits:               8703       100.00 %  learned literals
c minimized:                     0         0.00 %  learned literals
c shrunken:                   1298        14.91 %  learned literals
c minishrunken:               1017        11.69 %  learned literals
c otfs:                          5         0.48 %  of conflict
c propagations:            1036883        14.30 M  per second
c rephased:                      1      1034.00    interval
c restarts:                    156         6.63    interval
c stabilizing:                   1         3.29 %  of conflicts
c subsumed:                     29         0.02 %  of all clauses
c strengthened:                  5         0.00 %  of all clauses
c 
c seconds are measured in process time for solving
c 
c --- [ resources ] ----------------------------------------------------------
c 
c total process time since initialization:         0.10    seconds
c total real time since initialization:            0.10    seconds
c maximum resident set size of process:           34.35    MB
c 
c --- [ shutting down ] ------------------------------------------------------
c 
c exit 10
